picat/__tmp.lp
Minimize
 obj: X_1
Subject To
 -X0 >= -1
 X0 >= 0
 -X0 + X2 >= 0
 -X0 + X1 >= 0
 -X1 >= -1
 X1 >= 0
 -X1 - X2 + X0 >= -1
 64 X1 - X99 >= -34
 -36 X1 + X99 >= -1
 -X2 >= -1
 X2 >= 0
 36 X2 + X99 >= 36
 -64 X2 - X99 >= -99
 -X3 >= -1
 X3 >= 0
 -X3 + X5 >= 0
 -X3 + X4 >= 0
 -X4 >= -1
 X4 >= 0
 -X4 - X5 + X3 >= -1
 57 X4 - X100 >= -41
 -43 X4 + X100 >= -1
 -X5 >= -1
 X5 >= 0
 43 X5 + X100 >= 43
 -57 X5 - X100 >= -99
 -X6 >= -1
 X6 >= 0
 -X6 + X8 >= 0
 -X6 + X7 >= 0
 -X7 >= -1
 X7 >= 0
 -X7 - X8 + X6 >= -1
 90 X7 - X101 >= -8
 -10 X7 + X101 >= -1
 -X8 >= -1
 X8 >= 0
 10 X8 + X101 >= 10
 -90 X8 - X101 >= -99
 -X9 >= -1
 X9 >= 0
 -X9 - X18 - X78 - X84 >= -3
 -X9 - X30 - X57 - X54 >= -3
 -X9 - X6 - X3 - X0 >= -3
 -X9 + X11 >= 0
 -X9 + X10 >= 0
 -X10 >= -1
 X10 >= 0
 -X10 - X11 + X9 >= -1
 20 X10 - X102 >= -13
 -15 X10 + X102 >= -1
 -X11 >= -1
 X11 >= 0
 15 X11 + X102 >= 15
 -20 X11 - X102 >= -34
 -X12 >= -1
 X12 >= 0
 -X12 + X14 >= 0
 -X12 + X13 >= 0
 -X13 >= -1
 X13 >= 0
 -X13 - X14 + X12 >= -1
 74 X13 - X99 >= -24
 -26 X13 + X99 >= -1
 -X14 >= -1
 X14 >= 0
 26 X14 + X99 >= 26
 -74 X14 - X99 >= -99
 -X15 >= -1
 X15 >= 0
 -X15 + X17 >= 0
 -X15 + X16 >= 0
 -X16 >= -1
 X16 >= 0
 -X16 - X17 + X15 >= -1
 64 X16 - X100 >= -34
 -36 X16 + X100 >= -1
 -X17 >= -1
 X17 >= 0
 36 X17 + X100 >= 36
 -64 X17 - X100 >= -99
 -X18 >= -1
 X18 >= 0
 -X18 + X20 >= 0
 -X18 + X19 >= 0
 -X19 >= -1
 X19 >= 0
 -X19 - X20 + X18 >= -1
 72 X19 - X101 >= -26
 -28 X19 + X101 >= -1
 -X20 >= -1
 X20 >= 0
 28 X20 + X101 >= 28
 -72 X20 - X101 >= -99
 -X21 >= -1
 X21 >= 0
 -X21 - X6 - X87 - X75 >= -3
 -X21 - X30 - X51 - X48 >= -3
 -X21 - X45 - X27 - X0 >= -3
 -X21 - X42 - X39 - X36 >= -3
 -X21 - X18 - X15 - X12 >= -3
 -X21 + X23 >= 0
 -X21 + X22 >= 0
 -X22 >= -1
 X22 >= 0
 -X22 - X23 + X21 >= -1
 21 X22 - X102 >= -12
 -14 X22 + X102 >= -1
 -X23 >= -1
 X23 >= 0
 14 X23 + X102 >= 14
 -21 X23 - X102 >= -34
 -X24 >= -1
 X24 >= 0
 -X24 + X26 >= 0
 -X24 + X25 >= 0
 -X25 >= -1
 X25 >= 0
 -X25 - X26 + X24 >= -1
 39 X25 - X99 >= -59
 -61 X25 + X99 >= -1
 -X26 >= -1
 X26 >= 0
 61 X26 + X99 >= 61
 -39 X26 - X99 >= -99
 -X27 >= -1
 X27 >= 0
 -X27 + X29 >= 0
 -X27 + X28 >= 0
 -X28 >= -1
 X28 >= 0
 -X28 - X29 + X27 >= -1
 92 X28 - X100 >= -6
 -8 X28 + X100 >= -1
 -X29 >= -1
 X29 >= 0
 8 X29 + X100 >= 8
 -92 X29 - X100 >= -99
 -X30 >= -1
 X30 >= 0
 -X30 + X32 >= 0
 -X30 + X31 >= 0
 -X31 >= -1
 X31 >= 0
 -X31 - X32 + X30 >= -1
 81 X31 - X101 >= -17
 -19 X31 + X101 >= -1
 -X32 >= -1
 X32 >= 0
 19 X32 + X101 >= 19
 -81 X32 - X101 >= -99
 -X33 >= -1
 X33 >= 0
 -X33 - X6 - X39 - X90 >= -3
 -X33 - X30 - X27 - X24 >= -3
 -X33 + X35 >= 0
 -X33 + X34 >= 0
 -X34 >= -1
 X34 >= 0
 -X34 - X35 + X33 >= -1
 19 X34 - X102 >= -14
 -16 X34 + X102 >= -1
 -X35 >= -1
 X35 >= 0
 16 X35 + X102 >= 16
 -19 X35 - X102 >= -34
 -X36 >= -1
 X36 >= 0
 -X36 + X38 >= 0
 -X36 + X37 >= 0
 -X37 >= -1
 X37 >= 0
 -X37 - X38 + X36 >= -1
 69 X37 - X99 >= -29
 -31 X37 + X99 >= -1
 -X38 >= -1
 X38 >= 0
 31 X38 + X99 >= 31
 -69 X38 - X99 >= -99
 -X39 >= -1
 X39 >= 0
 -X39 + X41 >= 0
 -X39 + X40 >= 0
 -X40 >= -1
 X40 >= 0
 -X40 - X41 + X39 >= -1
 78 X40 - X100 >= -20
 -22 X40 + X100 >= -1
 -X41 >= -1
 X41 >= 0
 22 X41 + X100 >= 22
 -78 X41 - X100 >= -99
 -X42 >= -1
 X42 >= 0
 -X42 + X44 >= 0
 -X42 + X43 >= 0
 -X43 >= -1
 X43 >= 0
 -X43 - X44 + X42 >= -1
 63 X43 - X101 >= -35
 -37 X43 + X101 >= -1
 -X44 >= -1
 X44 >= 0
 37 X44 + X101 >= 37
 -63 X44 - X101 >= -99
 -X45 >= -1
 X45 >= 0
 -X45 + X47 >= 0
 -X45 + X46 >= 0
 -X46 >= -1
 X46 >= 0
 -X46 - X47 + X45 >= -1
 54 X46 - X101 >= -44
 -46 X46 + X101 >= -1
 -X47 >= -1
 X47 >= 0
 46 X47 + X101 >= 46
 -54 X47 - X101 >= -99
 -X48 >= -1
 X48 >= 0
 -X48 + X50 >= 0
 -X48 + X49 >= 0
 -X49 >= -1
 X49 >= 0
 -X49 - X50 + X48 >= -1
 79 X49 - X99 >= -19
 -21 X49 + X99 >= -1
 -X50 >= -1
 X50 >= 0
 21 X50 + X99 >= 21
 -79 X50 - X99 >= -99
 -X51 >= -1
 X51 >= 0
 -X51 + X53 >= 0
 -X51 + X52 >= 0
 -X52 >= -1
 X52 >= 0
 -X52 - X53 + X51 >= -1
 50 X52 - X100 >= -48
 -50 X52 + X100 >= -1
 -X53 >= -1
 X53 >= 0
 50 X53 + X100 >= 50
 -50 X53 - X100 >= -99
 -X54 >= -1
 X54 >= 0
 -X54 + X56 >= 0
 -X54 + X55 >= 0
 -X55 >= -1
 X55 >= 0
 -X55 - X56 + X54 >= -1
 59 X55 - X99 >= -39
 -41 X55 + X99 >= -1
 -X56 >= -1
 X56 >= 0
 41 X56 + X99 >= 41
 -59 X56 - X99 >= -99
 -X57 >= -1
 X57 >= 0
 -X57 + X59 >= 0
 -X57 + X58 >= 0
 -X58 >= -1
 X58 >= 0
 -X58 - X59 + X57 >= -1
 71 X58 - X100 >= -27
 -29 X58 + X100 >= -1
 -X59 >= -1
 X59 >= 0
 29 X59 + X100 >= 29
 -71 X59 - X100 >= -99
 -X60 >= -1
 X60 >= 0
 -X60 + X62 >= 0
 -X60 + X61 >= 0
 -X61 >= -1
 X61 >= 0
 -X61 - X62 + X60 >= -1
 89 X61 - X99 >= -9
 -11 X61 + X99 >= -1
 -X62 >= -1
 X62 >= 0
 11 X62 + X99 >= 11
 -89 X62 - X99 >= -99
 -X63 >= -1
 X63 >= 0
 -X63 - X18 - X93 - X66 >= -3
 -X63 - X81 - X78 - X48 >= -3
 -X63 - X45 - X57 - X75 >= -3
 -X63 - X42 - X3 - X60 >= -3
 -X63 + X65 >= 0
 -X63 + X64 >= 0
 -X64 >= -1
 X64 >= 0
 -X64 - X65 + X63 >= -1
 22 X64 - X102 >= -11
 -13 X64 + X102 >= -1
 -X65 >= -1
 X65 >= 0
 13 X65 + X102 >= 13
 -22 X65 - X102 >= -34
 -X66 >= -1
 X66 >= 0
 -X66 + X68 >= 0
 -X66 + X67 >= 0
 -X67 >= -1
 X67 >= 0
 -X67 - X68 + X66 >= -1
 94 X67 - X99 >= -4
 -6 X67 + X99 >= -1
 -X68 >= -1
 X68 >= 0
 6 X68 + X99 >= 6
 -94 X68 - X99 >= -99
 -X69 >= -1
 X69 >= 0
 -X69 + X71 >= 0
 -X69 + X70 >= 0
 -X70 >= -1
 X70 >= 0
 -X70 - X71 + X69 >= -1
 36 X70 - X101 >= -62
 -64 X70 + X101 >= -1
 -X71 >= -1
 X71 >= 0
 64 X71 + X101 >= 64
 -36 X71 - X101 >= -99
 -X72 >= -1
 X72 >= 0
 -X72 - X96 - X27 - X60 >= -3
 -X72 - X69 - X39 - X66 >= -3
 -X72 + X74 >= 0
 -X72 + X73 >= 0
 -X73 >= -1
 X73 >= 0
 -X73 - X74 + X72 >= -1
 23 X73 - X102 >= -10
 -12 X73 + X102 >= -1
 -X74 >= -1
 X74 >= 0
 12 X74 + X102 >= 12
 -23 X74 - X102 >= -34
 -X75 >= -1
 X75 >= 0
 -X75 + X77 >= 0
 -X75 + X76 >= 0
 -X76 >= -1
 X76 >= 0
 -X76 - X77 + X75 >= -1
 84 X76 - X99 >= -14
 -16 X76 + X99 >= -1
 -X77 >= -1
 X77 >= 0
 16 X77 + X99 >= 16
 -84 X77 - X99 >= -99
 -X78 >= -1
 X78 >= 0
 -X78 + X80 >= 0
 -X78 + X79 >= 0
 -X79 >= -1
 X79 >= 0
 -X79 - X80 + X78 >= -1
 85 X79 - X100 >= -13
 -15 X79 + X100 >= -1
 -X80 >= -1
 X80 >= 0
 15 X80 + X100 >= 15
 -85 X80 - X100 >= -99
 -X81 >= -1
 X81 >= 0
 -X81 + X83 >= 0
 -X81 + X82 >= 0
 -X82 >= -1
 X82 >= 0
 -X82 - X83 + X81 >= -1
 45 X82 - X101 >= -53
 -55 X82 + X101 >= -1
 -X83 >= -1
 X83 >= 0
 55 X83 + X101 >= 55
 -45 X83 - X101 >= -99
 -X84 >= -1
 X84 >= 0
 -X84 + X86 >= 0
 -X84 + X85 >= 0
 -X85 >= -1
 X85 >= 0
 -X85 - X86 + X84 >= -1
 54 X85 - X99 >= -44
 -46 X85 + X99 >= -1
 -X86 >= -1
 X86 >= 0
 46 X86 + X99 >= 46
 -54 X86 - X99 >= -99
 -X87 >= -1
 X87 >= 0
 -X87 + X89 >= 0
 -X87 + X88 >= 0
 -X88 >= -1
 X88 >= 0
 -X88 - X89 + X87 >= -1
 36 X88 - X100 >= -62
 -64 X88 + X100 >= -1
 -X89 >= -1
 X89 >= 0
 64 X89 + X100 >= 64
 -36 X89 - X100 >= -99
 -X90 >= -1
 X90 >= 0
 -X90 + X92 >= 0
 -X90 + X91 >= 0
 -X91 >= -1
 X91 >= 0
 -X91 - X92 + X90 >= -1
 44 X91 - X99 >= -54
 -56 X91 + X99 >= -1
 -X92 >= -1
 X92 >= 0
 56 X92 + X99 >= 56
 -44 X92 - X99 >= -99
 -X93 >= -1
 X93 >= 0
 -X93 + X95 >= 0
 -X93 + X94 >= 0
 -X94 >= -1
 X94 >= 0
 -X94 - X95 + X93 >= -1
 43 X94 - X100 >= -55
 -57 X94 + X100 >= -1
 -X95 >= -1
 X95 >= 0
 57 X95 + X100 >= 57
 -43 X95 - X100 >= -99
 -X96 >= -1
 X96 >= 0
 -X96 + X98 >= 0
 -X96 + X97 >= 0
 -X97 >= -1
 X97 >= 0
 -X97 - X98 + X96 >= -1
 27 X97 - X101 >= -71
 -73 X97 + X101 >= -1
 -X98 >= -1
 X98 >= 0
 73 X98 + X101 >= 73
 -27 X98 - X101 >= -99
 -X99 >= -97
 X99 >= 1
 567 X99 + 675 X100 + 735 X101 + 2835 X102 = 94500
 X99 + X100 + X101 + X102 = 100
 -X100 >= -97
 X100 >= 1
 -X101 >= -97
 X101 >= 1
 -X102 >= -32
 X102 >= 1
Bounds
 0 <= X_1 <= 0
 0 <= X0 <= 1
 0 <= X1 <= 1
 0 <= X2 <= 1
 0 <= X3 <= 1
 0 <= X4 <= 1
 0 <= X5 <= 1
 0 <= X6 <= 1
 0 <= X7 <= 1
 0 <= X8 <= 1
 0 <= X9 <= 1
 0 <= X10 <= 1
 0 <= X11 <= 1
 0 <= X12 <= 1
 0 <= X13 <= 1
 0 <= X14 <= 1
 0 <= X15 <= 1
 0 <= X16 <= 1
 0 <= X17 <= 1
 0 <= X18 <= 1
 0 <= X19 <= 1
 0 <= X20 <= 1
 0 <= X21 <= 1
 0 <= X22 <= 1
 0 <= X23 <= 1
 0 <= X24 <= 1
 0 <= X25 <= 1
 0 <= X26 <= 1
 0 <= X27 <= 1
 0 <= X28 <= 1
 0 <= X29 <= 1
 0 <= X30 <= 1
 0 <= X31 <= 1
 0 <= X32 <= 1
 0 <= X33 <= 1
 0 <= X34 <= 1
 0 <= X35 <= 1
 0 <= X36 <= 1
 0 <= X37 <= 1
 0 <= X38 <= 1
 0 <= X39 <= 1
 0 <= X40 <= 1
 0 <= X41 <= 1
 0 <= X42 <= 1
 0 <= X43 <= 1
 0 <= X44 <= 1
 0 <= X45 <= 1
 0 <= X46 <= 1
 0 <= X47 <= 1
 0 <= X48 <= 1
 0 <= X49 <= 1
 0 <= X50 <= 1
 0 <= X51 <= 1
 0 <= X52 <= 1
 0 <= X53 <= 1
 0 <= X54 <= 1
 0 <= X55 <= 1
 0 <= X56 <= 1
 0 <= X57 <= 1
 0 <= X58 <= 1
 0 <= X59 <= 1
 0 <= X60 <= 1
 0 <= X61 <= 1
 0 <= X62 <= 1
 0 <= X63 <= 1
 0 <= X64 <= 1
 0 <= X65 <= 1
 0 <= X66 <= 1
 0 <= X67 <= 1
 0 <= X68 <= 1
 0 <= X69 <= 1
 0 <= X70 <= 1
 0 <= X71 <= 1
 0 <= X72 <= 1
 0 <= X73 <= 1
 0 <= X74 <= 1
 0 <= X75 <= 1
 0 <= X76 <= 1
 0 <= X77 <= 1
 0 <= X78 <= 1
 0 <= X79 <= 1
 0 <= X80 <= 1
 0 <= X81 <= 1
 0 <= X82 <= 1
 0 <= X83 <= 1
 0 <= X84 <= 1
 0 <= X85 <= 1
 0 <= X86 <= 1
 0 <= X87 <= 1
 0 <= X88 <= 1
 0 <= X89 <= 1
 0 <= X90 <= 1
 0 <= X91 <= 1
 0 <= X92 <= 1
 0 <= X93 <= 1
 0 <= X94 <= 1
 0 <= X95 <= 1
 0 <= X96 <= 1
 0 <= X97 <= 1
 0 <= X98 <= 1
 1 <= X99 <= 97
 1 <= X100 <= 97
 1 <= X101 <= 97
 1 <= X102 <= 32
Integers
 X_1
 X0
 X1
 X2
 X3
 X4
 X5
 X6
 X7
 X8
 X9
 X10
 X11
 X12
 X13
 X14
 X15
 X16
 X17
 X18
 X19
 X20
 X21
 X22
 X23
 X24
 X25
 X26
 X27
 X28
 X29
 X30
 X31
 X32
 X33
 X34
 X35
 X36
 X37
 X38
 X39
 X40
 X41
 X42
 X43
 X44
 X45
 X46
 X47
 X48
 X49
 X50
 X51
 X52
 X53
 X54
 X55
 X56
 X57
 X58
 X59
 X60
 X61
 X62
 X63
 X64
 X65
 X66
 X67
 X68
 X69
 X70
 X71
 X72
 X73
 X74
 X75
 X76
 X77
 X78
 X79
 X80
 X81
 X82
 X83
 X84
 X85
 X86
 X87
 X88
 X89
 X90
 X91
 X92
 X93
 X94
 X95
 X96
 X97
 X98
 X99
 X100
 X101
 X102
End
