picat/__tmp.sol
Integer infeasible - objective value 0.00000000
      2 X2            0.19444444                       0
      4 X99                   29                       0
      6 X5            0.37209302                       0
      8 X100                  27                       0
     11 X7            0.25453968                       0
     12 X101           30.908571                       0
     20 X11            0.1272381                       0
     21 X10         0.0045714286                       0
     22 X102           13.091429                       0
     25 X13          0.067567568                       0
     27 X17                 0.25                       0
     30 X19          0.068174603                       0
     41 X23          0.064897959                       0
     42 X22          0.051972789                       0
     44 X26           0.52459016                       0
     47 X28           0.22826087                       0
     49 X31           0.17171076                       0
     52 X35           0.18178571                       0
     54 X38          0.064516129                       0
     57 X40           0.08974359                       0
     58 X44            0.1646332                       0
     60 X47           0.32807453                       0
     63 X49           0.12658228                       0
     64 X53                 0.46                       0
     66 X56           0.29268293                       0
     68 X59          0.068965517                       0
     72 X61            0.2247191                       0
     78 X64          0.095064935                       0
     80 X67           0.26595745                       0
     82 X71           0.51705357                       0
     87 X73           0.13440994                       0
     89 X76           0.17857143                       0
     91 X79           0.16470588                       0
     92 X83           0.43802597                       0
     94 X86           0.36956522                       0
     96 X89             0.578125                       0
     98 X92           0.48214286                       0
    100 X95           0.52631579                       0
    102 X98           0.57659491                       0
